910,91
996,177
858,434
801,406
729,371
584,336
618,343
536,301
444,369
281,610
237,476
548,474
356,355
269,705
363,724
300,787
505,648
624,424
727,264
977,110
804,237
735,300
575,460
1166,249
937,489
1166,563
415,213
586,219
617,207
663,288
721,486
735,512
894,514
1108,545
